(set-info :smt-lib-version 2.6)
(set-logic QF_S)
(set-info :source |
Generated by: Murphy Berzish, Mitja Kulczynski, Federico Mora, Florin Manea, Joel Day, Dirk Nowotka, Vijay Ganesh, Zhengyang Lu
Generated on: 2020-10-01
Description: Translated from a collection of real-world regex queries, AutomataArk, collected by Loris D’Antoni and Fang Wang: https://github.com/lorisdanto/automatark
Application: Evaluate solvers on real-world regex queries
Target solver: Z3str3RE, CVC4, OSTRICH, Z3seq, Z3str3, Z3-Trau
Publications: Berzish, M., Kulczynski, M., Mora, F., Manea, F., Day, J. D., Nowotka, D., & Ganesh, V. (2021, July). An SMT solver for regular expressions and linear arithmetic over string length. In CAV 2021.
|)
(set-info :license "https://creativecommons.org/licenses/by/4.0/")
(set-info :category "industrial")
(set-info :status sat)

(declare-const X String)
(assert (not (str.in_re X (re.++ (re.opt (str.to_re "http://")) (re.opt (str.to_re "www.")) (str.to_re ".") (re.union ((_ re.loop 2 4) (re.union (re.range "A" "Z") (re.range "a" "z"))) (re.++ ((_ re.loop 2 2) (re.union (re.range "A" "Z") (re.range "a" "z"))) (str.to_re ".") ((_ re.loop 2 2) (re.union (re.range "A" "Z") (re.range "a" "z"))))) (str.to_re "/") (re.opt (str.to_re "watch?v=")) ((_ re.loop 6 12) (re.union (re.range "A" "Z") (re.range "a" "z") (re.range "0" "9") (str.to_re "-") (str.to_re "_"))) (re.* (re.++ (str.to_re "&") (re.+ (re.union (re.range "A" "Z") (re.range "a" "z") (re.range "0" "9") (str.to_re "-") (str.to_re "_"))) (str.to_re "=") (re.+ (re.union (re.range "A" "Z") (re.range "a" "z") (re.range "0" "9") (str.to_re "-") (str.to_re "_"))))) (str.to_re "\u{a}y") (re.union (str.to_re "outube") (str.to_re "img") (str.to_re "outu"))))))
(assert (not (str.in_re X (re.++ (re.union (re.++ (re.union (re.++ (re.opt (str.to_re "0")) (re.range "1" "9")) (re.++ (re.union (str.to_re "1") (str.to_re "2")) (re.range "1" "9")) (re.++ (str.to_re "3") (re.union (str.to_re "0") (str.to_re "1")))) (str.to_re ".") (re.union (re.++ (re.opt (str.to_re "0")) (re.union (str.to_re "1") (str.to_re "3") (str.to_re "5") (str.to_re "7") (str.to_re "8"))) (re.++ (str.to_re "1") (re.union (str.to_re "0") (str.to_re "2")))) (str.to_re ".20") ((_ re.loop 2 2) (re.range "0" "9"))) (re.++ (re.union (re.++ (re.opt (str.to_re "0")) (re.range "1" "9")) (re.++ (re.union (str.to_re "1") (str.to_re "2")) (re.range "1" "9")) (str.to_re "30")) (str.to_re ".") (re.union (re.++ (re.opt (str.to_re "0")) (re.union (str.to_re "1") (str.to_re "3") (str.to_re "4") (str.to_re "5") (str.to_re "6") (str.to_re "7") (str.to_re "8") (str.to_re "9"))) (re.++ (str.to_re "1") (re.union (str.to_re "0") (str.to_re "1") (str.to_re "2")))) (str.to_re ".20") ((_ re.loop 2 2) (re.range "0" "9"))) (re.++ (re.union (re.++ (re.opt (str.to_re "0")) (re.range "1" "9")) (re.++ (str.to_re "1") (re.range "1" "9")) (re.++ (str.to_re "2") (re.range "0" "8"))) (str.to_re ".") (re.union (re.++ (re.opt (str.to_re "0")) (re.union (str.to_re "1") (str.to_re "2") (str.to_re "3") (str.to_re "4") (str.to_re "5") (str.to_re "6") (str.to_re "7") (str.to_re "8") (str.to_re "9"))) (re.++ (str.to_re "1") (re.union (str.to_re "0") (str.to_re "1") (str.to_re "2")))) (str.to_re ".20") ((_ re.loop 2 2) (re.range "0" "9"))) (re.++ (re.union (re.++ (re.opt (str.to_re "0")) (re.range "1" "9")) (re.++ (re.union (str.to_re "1") (str.to_re "2")) (re.range "1" "9"))) (str.to_re ".") (re.union (re.++ (re.opt (str.to_re "0")) (re.union (str.to_re "1") (str.to_re "2") (str.to_re "3") (str.to_re "4") (str.to_re "5") (str.to_re "6") (str.to_re "7") (str.to_re "8") (str.to_re "9"))) (re.++ (str.to_re "1") (re.union (str.to_re "0") (str.to_re "1") (str.to_re "2")))) (str.to_re ".20") (re.union (str.to_re "00") (str.to_re "04") (str.to_re "08") (str.to_re "12") (str.to_re "16") (str.to_re "20") (str.to_re "24") (str.to_re "28") (str.to_re "32") (str.to_re "36") (str.to_re "40") (str.to_re "44") (str.to_re "48") (str.to_re "52") (str.to_re "56") (str.to_re "60") (str.to_re "64") (str.to_re "68") (str.to_re "72") (str.to_re "76") (str.to_re "80") (str.to_re "84") (str.to_re "88") (str.to_re "92") (str.to_re "96")))) (str.to_re "\u{a}")))))
(assert (not (str.in_re X (re.++ (re.union (re.++ (re.union (re.++ ((_ re.loop 1 1) (re.range "0" "9")) (re.opt (re.union (str.to_re " ") (str.to_re "\u{9}") (str.to_re "\u{a}") (str.to_re "\u{c}") (str.to_re "\u{d}"))) ((_ re.loop 4 4) (re.range "0" "9"))) (re.++ ((_ re.loop 2 2) (re.range "0" "9")) (re.opt (re.union (str.to_re " ") (str.to_re "\u{9}") (str.to_re "\u{a}") (str.to_re "\u{c}") (str.to_re "\u{d}"))) ((_ re.loop 3 3) (re.range "0" "9")))) (re.opt (re.union (str.to_re " ") (str.to_re "\u{9}") (str.to_re "\u{a}") (str.to_re "\u{c}") (str.to_re "\u{d}"))) ((_ re.loop 4 4) (re.range "0" "9"))) (re.++ ((_ re.loop 3 3) (re.range "0" "9")) (re.opt (re.union (str.to_re " ") (str.to_re "\u{9}") (str.to_re "\u{a}") (str.to_re "\u{c}") (str.to_re "\u{d}"))) ((_ re.loop 2 3) (re.range "0" "9")) (re.opt (re.union (str.to_re " ") (str.to_re "\u{9}") (str.to_re "\u{a}") (str.to_re "\u{c}") (str.to_re "\u{d}"))) ((_ re.loop 3 3) (re.range "0" "9"))) (re.++ ((_ re.loop 4 4) (re.range "0" "9")) (re.opt (re.union (str.to_re " ") (str.to_re "\u{9}") (str.to_re "\u{a}") (str.to_re "\u{c}") (str.to_re "\u{d}"))) ((_ re.loop 4 5) (re.range "0" "9")))) (str.to_re "\u{a}") (re.union (re.++ (re.opt (re.union (str.to_re "+") (str.to_re "00"))) (str.to_re "44")) (str.to_re "0")) ((_ re.loop 1 1) (re.union (str.to_re "1") (str.to_re "2") (str.to_re "3") (str.to_re "5") (str.to_re "7") (str.to_re "8")))))))
(assert (not (str.in_re X (re.++ (re.union (str.to_re "V") (str.to_re "|") (str.to_re "E") (str.to_re "J") (str.to_re "G") (str.to_re "v") (str.to_re "e") (str.to_re "j") (str.to_re "g")) ((_ re.loop 5 8) (re.range "0" "9")) (str.to_re "\u{a}")))))
(check-sat)

(exit)
